NAME: random-22-8077
TYPE: TSP
COMMENT: size=22 seed=8077
DIMENSION: 46
EDGE_WEIGHT_TYPE: EUC_2D
NODE_COORD_SECTION
+0 139 59
-0 139 59
+1 569 48
-1 675 105
+2 629 390
-2 121 540
+3 867 721
-3 142 865
+4 439 19
-4 568 391
+5 647 104
-5 814 884
+6 522 209
-6 549 599
+7 912 834
-7 725 670
+8 431 758
-8 955 544
+9 860 950
-9 995 567
+10 694 152
-10 369 524
+11 831 576
-11 209 192
+12 244 461
-12 147 655
+13 276 348
-13 489 162
+14 485 342
-14 889 148
+15 612 757
-15 283 176
+16 734 798
-16 826 812
+17 771 876
-17 478 543
+18 556 141
-18 739 781
+19 651 884
-19 675 173
+20 13 474
-20 617 257
+21 45 667
-21 23 335
+22 143 74
-22 175 793
PRECEDENCE_SECTION
+0 -0
+1 -1
+2 -2
+3 -3
+4 -4
+5 -5
+6 -6
+7 -7
+8 -8
+9 -9
+10 -10
+11 -11
+12 -12
+13 -13
+14 -14
+15 -15
+16 -16
+17 -17
+18 -18
+19 -19
+20 -20
+21 -21
+22 -22
EOF
